p edge 81 967
e 1 4
e 1 15
e 1 16
e 1 17
e 1 23
e 1 24
e 1 28
e 1 29
e 1 30
e 1 31
e 1 32
e 1 37
e 1 42
e 1 43
e 1 44
e 1 46
e 1 47
e 1 51
e 1 52
e 1 55
e 1 56
e 1 58
e 1 63
e 1 65
e 1 66
e 1 68
e 1 71
e 1 73
e 1 77
e 2 5
e 2 11
e 2 12
e 2 17
e 2 18
e 2 20
e 2 21
e 2 23
e 2 29
e 2 42
e 2 46
e 2 53
e 2 56
e 2 60
e 2 62
e 2 63
e 2 69
e 2 74
e 2 79
e 2 80
e 3 7
e 3 11
e 3 14
e 3 16
e 3 22
e 3 24
e 3 26
e 3 27
e 3 29
e 3 33
e 3 35
e 3 38
e 3 41
e 3 44
e 3 52
e 3 55
e 3 63
e 3 66
e 3 68
e 3 69
e 3 70
e 3 72
e 3 73
e 3 76
e 4 7
e 4 10
e 4 12
e 4 14
e 4 15
e 4 20
e 4 28
e 4 31
e 4 32
e 4 39
e 4 41
e 4 44
e 4 46
e 4 49
e 4 54
e 4 59
e 4 61
e 4 63
e 4 64
e 4 72
e 4 74
e 4 78
e 4 81
e 5 9
e 5 15
e 5 19
e 5 20
e 5 25
e 5 34
e 5 38
e 5 41
e 5 47
e 5 58
e 5 59
e 5 61
e 5 68
e 5 69
e 5 71
e 5 72
e 5 74
e 5 75
e 5 81
e 6 7
e 6 10
e 6 12
e 6 14
e 6 20
e 6 23
e 6 24
e 6 27
e 6 28
e 6 30
e 6 32
e 6 41
e 6 45
e 6 51
e 6 55
e 6 59
e 6 62
e 6 64
e 6 68
e 6 78
e 6 81
e 7 8
e 7 9
e 7 15
e 7 17
e 7 19
e 7 21
e 7 24
e 7 34
e 7 39
e 7 41
e 7 49
e 7 53
e 7 56
e 7 57
e 7 59
e 7 60
e 7 62
e 7 63
e 7 65
e 7 66
e 7 68
e 7 70
e 7 76
e 7 80
e 8 21
e 8 24
e 8 26
e 8 30
e 8 32
e 8 34
e 8 36
e 8 38
e 8 43
e 8 46
e 8 50
e 8 53
e 8 54
e 8 55
e 8 57
e 8 58
e 8 68
e 8 78
e 9 11
e 9 13
e 9 15
e 9 17
e 9 19
e 9 24
e 9 25
e 9 26
e 9 28
e 9 29
e 9 32
e 9 33
e 9 34
e 9 39
e 9 56
e 9 57
e 9 60
e 9 61
e 9 62
e 9 64
e 9 67
e 9 68
e 9 75
e 9 78
e 10 22
e 10 30
e 10 36
e 10 37
e 10 43
e 10 46
e 10 49
e 10 53
e 10 54
e 10 55
e 10 57
e 10 60
e 10 61
e 10 63
e 10 67
e 10 69
e 10 72
e 11 13
e 11 14
e 11 16
e 11 17
e 11 20
e 11 21
e 11 23
e 11 24
e 11 31
e 11 32
e 11 36
e 11 41
e 11 45
e 11 46
e 11 49
e 11 52
e 11 58
e 11 64
e 11 70
e 11 71
e 11 74
e 11 76
e 12 15
e 12 20
e 12 26
e 12 27
e 12 32
e 12 35
e 12 40
e 12 42
e 12 44
e 12 45
e 12 46
e 12 51
e 12 52
e 12 56
e 12 57
e 12 61
e 12 68
e 12 71
e 12 73
e 12 80
e 13 16
e 13 18
e 13 23
e 13 24
e 13 37
e 13 38
e 13 44
e 13 45
e 13 46
e 13 47
e 13 49
e 13 54
e 13 55
e 13 56
e 13 58
e 13 65
e 13 67
e 13 68
e 13 71
e 13 73
e 13 74
e 13 75
e 13 77
e 13 79
e 13 80
e 14 16
e 14 18
e 14 21
e 14 23
e 14 26
e 14 31
e 14 33
e 14 36
e 14 37
e 14 40
e 14 42
e 14 44
e 14 45
e 14 46
e 14 47
e 14 52
e 14 55
e 14 58
e 14 64
e 14 66
e 14 74
e 14 79
e 14 81
e 15 17
e 15 18
e 15 19
e 15 22
e 15 27
e 15 34
e 15 38
e 15 42
e 15 45
e 15 48
e 15 50
e 15 51
e 15 52
e 15 53
e 15 55
e 15 59
e 15 63
e 15 70
e 15 72
e 15 77
e 15 81
e 16 20
e 16 21
e 16 29
e 16 34
e 16 36
e 16 38
e 16 39
e 16 40
e 16 42
e 16 43
e 16 49
e 16 50
e 16 52
e 16 58
e 16 59
e 16 64
e 16 67
e 16 72
e 16 74
e 16 77
e 16 78
e 16 79
e 16 80
e 17 19
e 17 28
e 17 31
e 17 35
e 17 38
e 17 43
e 17 44
e 17 51
e 17 55
e 17 59
e 17 60
e 17 62
e 17 70
e 18 20
e 18 21
e 18 22
e 18 24
e 18 26
e 18 27
e 18 29
e 18 34
e 18 41
e 18 42
e 18 44
e 18 45
e 18 47
e 18 48
e 18 53
e 18 55
e 18 60
e 18 65
e 18 66
e 18 67
e 18 71
e 18 77
e 18 78
e 18 79
e 18 80
e 19 28
e 19 29
e 19 33
e 19 35
e 19 40
e 19 41
e 19 49
e 19 52
e 19 54
e 19 57
e 19 62
e 19 64
e 19 70
e 19 80
e 20 23
e 20 32
e 20 38
e 20 40
e 20 41
e 20 49
e 20 51
e 20 53
e 20 55
e 20 56
e 20 57
e 20 63
e 20 64
e 20 68
e 20 73
e 20 75
e 20 76
e 20 77
e 21 29
e 21 30
e 21 33
e 21 36
e 21 38
e 21 39
e 21 42
e 21 46
e 21 49
e 21 54
e 21 61
e 21 65
e 21 67
e 21 68
e 21 69
e 21 70
e 21 74
e 21 77
e 21 78
e 22 31
e 22 32
e 22 33
e 22 40
e 22 43
e 22 47
e 22 51
e 22 55
e 22 56
e 22 65
e 22 67
e 22 72
e 23 27
e 23 29
e 23 34
e 23 36
e 23 37
e 23 39
e 23 59
e 23 61
e 23 66
e 23 67
e 23 69
e 23 73
e 23 75
e 23 76
e 23 77
e 24 33
e 24 35
e 24 40
e 24 50
e 24 52
e 24 53
e 24 54
e 24 55
e 24 59
e 24 62
e 24 68
e 24 72
e 24 73
e 24 76
e 25 27
e 25 37
e 25 42
e 25 43
e 25 51
e 25 52
e 25 56
e 25 57
e 25 64
e 25 67
e 25 72
e 25 73
e 25 79
e 25 80
e 25 81
e 26 39
e 26 40
e 26 42
e 26 50
e 26 55
e 26 58
e 26 59
e 26 60
e 26 61
e 26 62
e 26 63
e 26 65
e 26 66
e 26 68
e 26 69
e 26 70
e 26 79
e 27 31
e 27 36
e 27 41
e 27 47
e 27 54
e 27 64
e 27 68
e 27 69
e 27 70
e 27 72
e 27 75
e 27 77
e 28 33
e 28 36
e 28 38
e 28 41
e 28 43
e 28 46
e 28 47
e 28 53
e 28 59
e 28 61
e 28 64
e 28 65
e 28 68
e 28 69
e 28 73
e 28 75
e 29 30
e 29 33
e 29 36
e 29 40
e 29 41
e 29 43
e 29 47
e 29 58
e 29 73
e 29 74
e 29 78
e 30 34
e 30 36
e 30 38
e 30 40
e 30 41
e 30 43
e 30 48
e 30 50
e 30 56
e 30 59
e 30 61
e 30 75
e 31 33
e 31 46
e 31 54
e 31 56
e 31 58
e 31 59
e 31 60
e 31 61
e 31 66
e 31 68
e 31 74
e 31 77
e 32 33
e 32 35
e 32 38
e 32 41
e 32 46
e 32 48
e 32 54
e 32 58
e 32 60
e 32 63
e 32 65
e 32 68
e 32 74
e 33 35
e 33 39
e 33 56
e 33 57
e 33 58
e 33 62
e 33 66
e 33 67
e 33 69
e 33 72
e 33 75
e 33 76
e 34 40
e 34 42
e 34 43
e 34 46
e 34 47
e 34 48
e 34 55
e 34 57
e 34 62
e 34 65
e 34 66
e 34 70
e 34 71
e 34 75
e 34 77
e 35 38
e 35 41
e 35 44
e 35 45
e 35 49
e 35 50
e 35 52
e 35 56
e 35 57
e 35 59
e 35 60
e 35 61
e 35 62
e 35 63
e 35 66
e 35 69
e 35 74
e 35 75
e 35 78
e 35 79
e 35 81
e 36 37
e 36 40
e 36 41
e 36 43
e 36 46
e 36 55
e 36 58
e 36 62
e 36 64
e 36 66
e 36 68
e 36 70
e 36 72
e 36 77
e 37 39
e 37 40
e 37 42
e 37 45
e 37 53
e 37 56
e 37 58
e 37 60
e 37 63
e 37 64
e 37 65
e 37 66
e 37 71
e 37 73
e 37 74
e 37 75
e 37 76
e 37 77
e 37 79
e 37 80
e 37 81
e 38 45
e 38 53
e 38 54
e 38 59
e 38 60
e 38 63
e 38 70
e 38 72
e 38 74
e 38 75
e 38 78
e 39 40
e 39 43
e 39 44
e 39 48
e 39 51
e 39 53
e 39 55
e 39 59
e 39 61
e 39 62
e 39 69
e 39 72
e 39 76
e 39 77
e 40 41
e 40 42
e 40 46
e 40 47
e 40 48
e 40 49
e 40 51
e 40 56
e 40 58
e 40 61
e 40 63
e 40 65
e 40 70
e 40 72
e 40 76
e 40 77
e 40 78
e 40 80
e 41 45
e 41 50
e 41 59
e 41 64
e 41 67
e 41 69
e 41 74
e 41 75
e 41 76
e 41 78
e 41 79
e 41 81
e 42 44
e 42 46
e 42 47
e 42 56
e 42 61
e 42 62
e 42 64
e 42 74
e 42 81
e 43 47
e 43 53
e 43 62
e 43 65
e 43 66
e 43 67
e 43 76
e 43 77
e 43 81
e 44 45
e 44 46
e 44 47
e 44 48
e 44 49
e 44 54
e 44 58
e 44 60
e 44 62
e 44 65
e 44 68
e 44 72
e 44 78
e 44 80
e 44 81
e 45 50
e 45 51
e 45 52
e 45 54
e 45 55
e 45 57
e 45 60
e 45 67
e 45 71
e 45 72
e 45 73
e 45 75
e 45 78
e 45 80
e 46 49
e 46 50
e 46 51
e 46 55
e 46 56
e 46 57
e 46 58
e 46 67
e 46 70
e 46 72
e 46 75
e 47 48
e 47 51
e 47 53
e 47 54
e 47 59
e 47 65
e 47 66
e 47 67
e 47 72
e 48 50
e 48 52
e 48 56
e 48 61
e 48 65
e 48 66
e 48 69
e 48 71
e 48 73
e 48 75
e 48 78
e 48 79
e 49 52
e 49 54
e 49 56
e 49 64
e 49 67
e 49 68
e 49 71
e 49 78
e 49 80
e 50 55
e 50 56
e 50 57
e 50 59
e 50 60
e 50 63
e 50 66
e 50 67
e 50 68
e 50 71
e 50 72
e 50 78
e 50 80
e 50 81
e 51 59
e 51 60
e 51 72
e 51 73
e 51 77
e 51 78
e 51 81
e 52 61
e 52 63
e 52 65
e 52 69
e 52 73
e 52 79
e 53 56
e 53 61
e 53 63
e 53 76
e 53 79
e 53 81
e 54 57
e 54 59
e 54 60
e 54 64
e 54 65
e 54 66
e 54 81
e 55 61
e 55 62
e 55 63
e 55 65
e 55 68
e 55 70
e 55 72
e 55 75
e 55 80
e 56 57
e 56 67
e 56 70
e 56 72
e 56 79
e 56 80
e 56 81
e 57 58
e 57 60
e 57 64
e 57 65
e 57 68
e 57 70
e 57 74
e 57 76
e 57 79
e 58 60
e 58 63
e 58 64
e 58 70
e 58 74
e 58 75
e 58 76
e 58 80
e 59 62
e 59 70
e 59 71
e 59 76
e 59 77
e 60 67
e 60 68
e 60 69
e 60 81
e 61 64
e 61 76
e 61 77
e 61 78
e 62 66
e 62 67
e 62 70
e 62 71
e 62 74
e 62 78
e 62 80
e 63 65
e 63 68
e 63 72
e 63 75
e 63 76
e 63 78
e 64 65
e 64 67
e 64 73
e 65 66
e 65 69
e 65 70
e 65 77
e 65 81
e 66 68
e 66 72
e 66 75
e 66 81
e 67 71
e 67 80
e 67 81
e 68 70
e 68 71
e 68 77
e 68 80
e 68 81
e 69 70
e 69 71
e 69 72
e 69 74
e 69 76
e 69 77
e 69 80
e 70 71
e 70 74
e 70 75
e 70 79
e 70 80
e 70 81
e 71 72
e 71 73
e 71 75
e 71 77
e 72 74
e 72 75
e 72 81
e 73 75
e 73 78
e 74 76
e 74 77
e 74 80
e 75 77
e 76 79
e 77 78
e 77 80
e 78 81
e 79 81
